100 8
753 133
414 370
451 212
714 567
653 270
128 849
864 545
992 698
152 840
609 283
227 71
489 377
246 65
540 205
395 441
689 676
393 407
885 584
710 517
827 653
332 329
797 244
600 474
929 499
302 843
707 424
133 730
662 431
817 681
781 252
837 522
715 160
363 685
396 694
857 191
419 325
737 101
860 562
356 912
385 944
280 273
581 263
488 509
889 638
460 421
886 135
884 122
447 669
423 326
738 226
268 115
566 687
849 282
661 414
407 214
548 479
432 129
201 101
431 630
882 390
373 849
216 106
250 124
884 223
856 400
724 259
455 871
451 628
417 448
895 694
848 533
429 417
281 776
560 445
673 345
943 414
600 557
357 818
493 423
278 744
375 819
175 719
609 628
238 72
888 652
759 740
852 564
154 867
63 854
413 174
837 199
623 653
856 577
182 195
215 159
282 771
438 677
568 398
879 172
680 362
